units 		real
boundary	p p p
atom_style	full

processors 	1 * *
pair_style lj/class2/coul/long 10
pair_modify tail yes mix sixthpower
bond_style class2
angle_style class2
dihedral_style class2
improper_style class2
special_bonds lj 0 0 1 coul 0 0 1
read_data 	"relax.data"
#include         "polyurethane_60nm.params"
kspace_style	pppm 1e-06

min_style          cg
minimize           1e-8 1e-10 20000 50000
reset_timestep     0

variable tstp equal 0.1
timestep ${tstp}
variable tdamp equal "v_tstp * 100"

fix  	1 all nve
fix  	2 all langevin 300 300 ${tdamp} 90429997

thermo 1000

fix 3 all balance 100000 1.0 shift z 20 1.1 out tmp.balance

run 100000

unfix 2

compute		ch_id all chunk/atom bin/1d z lower 10 units box

fix 	    	ave_ch all ave/chunk 1 100 200 ch_id density/mass file density.out

compute temp all temp/chunk ch_id temp com yes 

fix temp_profile all ave/time 1 100 200 c_temp[1] c_temp[2] c_temp[3] file temp.out mode vector

compute vor all voronoi/atom

compute stress all stress/atom NULL

fix stress all ave/chunk 1 100 200 ch_id c_stress[1] c_stress[2] c_stress[3] c_stress[4] c_stress[5] c_stress[6] c_vor[3] file stress.300K.out

fix shock all ave/chunk 1 100 200 ch_id vx vy vz file velo.300K.out

region 		piston block INF INF INF INF INF 20 units box

group          piston region piston

compute ke all ke/atom

dump 1 all custom 10000 shockmovie.*.lammpstrj id mol type xu yu zu c_ke

dump_modify 1 sort id  

fix move_pist piston move linear 0 0 0.02 units box
run            100000
unfix move_pist
run            900000
